dates = {'2021-11-09','2021-11-10','2021-11-11','2021-11-12','2021-11-13','2021-11-14','2021-11-15'};

daysOfWeek = [Tuesday,Wednesday,Thursday,Friday,Saturday,Sunday,Monday];

% For this week, how many people will be here.
numPeople = [51,51,51,51,51,54,65];

% Physical workers need 50 to 100 % more nutrients per day.
numPhysicalWorkers = [28.0,28.0,28.0,28.0,28.0,28.0,33.0];

% Males need +25% more nutrients per day.
numMen = [41,38,38,38,38,40,47];

% Num people who do not eat categories. contains = {none, meat, milk, gluten, egg, nut, seed, sugars}
numRefusals = [| 0,0,1,0,2,0,2,1 | 0,0,1,0,2,0,2,1 | 0,0,1,0,2,0,2,1 | 0,0,1,0,2,0,2,1 | 0,0,1,0,2,0,2,1 | 0,0,0,3,2,3,6,0 | 0,0,4,1,0,0,0,0 |];

